files/upTests/__essence_catalog/prob010/0001.eprime.solution
language ESSENCE' 1.0
$ minion Nodes: 7
$ minion TotalTime: 0.017292
$ Savile Row TotalTime: 1.75
letting sched_Explicit_MSetOfSets_Explicit_Occurrence be [[[false, false, true, true;int(1..4)], 
[true, true, false, false;int(1..4)];int(1..2)], 
[[false, false, true, true;int(1..4)], 
[true, true, false, false;int(1..4)];int(1..2)], 
[[false, false, true, true;int(1..4)], 
[true, true, false, false;int(1..4)];int(1..2)];int(1..3)]
